33D32945 STP File, STP Format Version 1.0

SECTION Comments
Name "edge_n15_d4_s39"
Problem "Euclidean Steiner Tree Problem"
Remark "Generated with STPGenerator. 4 dimensions."
END

SECTION Graph
Nodes 15
END

SECTION Coordinates
DDDD 0 0.9571484462 0.9571484462 0.9571484462 0.9571484462
DDDD 1 0.5881108905 0.5881108905 0.5881108905 0.5881108905
DDDD 2 0.2816415891 0.2816415891 0.2816415891 0.2816415891
DDDD 3 0.9608924622 0.9608924622 0.9608924622 0.9608924622
DDDD 4 0.4010537497 0.4010537497 0.4010537497 0.4010537497
DDDD 5 0.5862380008 0.5862380008 0.5862380008 0.5862380008
DDDD 6 0.0521304696 0.0521304696 0.0521304696 0.0521304696
DDDD 7 0.9748592134 0.9748592134 0.9748592134 0.9748592134
DDDD 8 0.3832746434 0.3832746434 0.3832746434 0.3832746434
DDDD 9 0.7694257664 0.7694257664 0.7694257664 0.7694257664
DDDD 10 0.3322590768 0.3322590768 0.3322590768 0.3322590768
DDDD 11 0.7771537661 0.7771537661 0.7771537661 0.7771537661
DDDD 12 0.6123015828 0.6123015828 0.6123015828 0.6123015828
DDDD 13 0.9753510230 0.9753510230 0.9753510230 0.9753510230
DDDD 14 0.6286001725 0.6286001725 0.6286001725 0.6286001725
END
